Version identifier: 22.1.1.0 | 2022-11-27 | 9160aff4d
CPXPARAM_Conflict_Algorithm                      6
CPXPARAM_OptimalityTarget                        1
CPXPARAM_MultiObjective_Display                  2
CPXPARAM_Emphasis_MIP                            5
CPXPARAM_MIP_Pool_Intensity                      4
CPXPARAM_MIP_Limits_Populate                     50
CPXPARAM_MIP_Strategy_Search                     1
CPXPARAM_TimeLimit                               1000
CPXPARAM_DetTimeLimit                            500000
CPXPARAM_MIP_Strategy_HeuristicEffort            3
Legacy callback                                  pi
Tried aggregator 2 times.
MIP Presolve eliminated 9648 rows and 2410 columns.
MIP Presolve modified 440 coefficients.
Aggregator did 30 substitutions.
Reduced MIP has 1132 rows, 1670 columns, and 12872 nonzeros.
Reduced MIP has 1560 binaries, 110 generals, 0 SOSs, and 0 indicators.
Presolve time = 0.03 sec. (39.44 ticks)
Found incumbent of value 0.000000 after 0.06 sec. (54.14 ticks)

Root node processing (before b&c):
  Real time             =    0.06 sec. (54.33 ticks)
Parallel b&c, 12 threads:
  Real time             =    0.00 sec. (0.00 ticks)
  Sync time (average)   =    0.00 sec.
  Wait time (average)   =    0.00 sec.
                          ------------
Total (root+branch&cut) =    0.06 sec. (54.33 ticks)

Solving CPU Elapsed Time in (Seconds): 156464.484
The value of the objective function is (Total Cost): 0

 [[[[0 0 0]
                 [0 0 0]
                 [0 0 0]
                 [0 0 0]
                 [0 0 0]
                 [0 0 0]
                 [0 0 0]
                 [0 0 0]
                 [0 0 0]
                 [0 0 0]]
             [[0 0 0]
                 [0 0 0]
                 [0 0 0]
                 [0 0 0]
                 [0 0 0]
                 [0 0 0]
                 [0 0 0]
                 [0 0 0]
                 [0 0 0]
                 [1 0 0]]
             [[0 0 0]
                 [0 0 0]
                 [0 0 0]
                 [0 0 0]
                 [0 0 0]
                 [0 0 0]
                 [0 0 0]
                 [1 0 0]
                 [0 0 0]
                 [0 0 0]]
             [[0 0 0]
                 [0 0 0]
                 [1 0 0]
                 [0 0 0]
                 [0 0 0]
                 [0 0 0]
                 [0 0 0]
                 [0 0 0]
                 [0 0 0]
                 [0 0 0]]
             [[0 0 0]
                 [0 0 0]
                 [0 0 0]
                 [0 0 0]
                 [0 0 0]
                 [1 0 0]
                 [0 0 0]
                 [0 0 0]
                 [0 0 0]
                 [0 0 0]]
             [[0 0 0]
                 [0 0 0]
                 [0 0 0]
                 [1 0 0]
                 [0 0 0]
                 [0 0 0]
                 [0 0 0]
                 [0 0 0]
                 [0 0 0]
                 [0 0 0]]
             [[0 0 0]
                 [0 0 0]
                 [0 0 0]
                 [0 0 0]
                 [0 0 0]
                 [0 0 0]
                 [1 0 0]
                 [0 0 0]
                 [0 0 0]
                 [0 0 0]]
             [[0 0 0]
                 [1 0 0]
                 [0 0 0]
                 [0 0 0]
                 [0 0 0]
                 [0 0 0]
                 [0 0 0]
                 [0 0 0]
                 [0 0 0]
                 [0 0 0]]
             [[0 0 0]
                 [0 0 0]
                 [0 0 0]
                 [0 0 0]
                 [0 0 0]
                 [0 0 0]
                 [0 0 0]
                 [0 0 0]
                 [1 0 0]
                 [0 0 0]]
             [[1 0 0]
                 [0 0 0]
                 [0 0 0]
                 [0 0 0]
                 [0 0 0]
                 [0 0 0]
                 [0 0 0]
                 [0 0 0]
                 [0 0 0]
                 [0 0 0]]
             [[0 0 0]
                 [0 0 0]
                 [0 0 0]
                 [0 0 0]
                 [1 0 0]
                 [0 0 0]
                 [0 0 0]
                 [0 0 0]
                 [0 0 0]
                 [0 0 0]]
             [[0 0 0]
                 [0 0 0]
                 [0 0 0]
                 [0 0 0]
                 [0 0 0]
                 [0 0 0]
                 [0 0 0]
                 [0 0 0]
                 [0 0 0]
                 [0 0 0]]]
         [[[0 0 0]
                 [0 0 0]
                 [0 0 0]
                 [0 0 0]
                 [0 0 0]
                 [0 0 0]
                 [0 0 0]
                 [0 0 0]
                 [0 0 0]
                 [1 0 0]]
             [[0 0 0]
                 [0 0 0]
                 [0 0 0]
                 [0 0 0]
                 [0 0 0]
                 [0 0 0]
                 [0 0 0]
                 [0 0 0]
                 [0 0 0]
                 [0 0 0]]
             [[0 0 0]
                 [0 0 0]
                 [0 0 0]
                 [0 0 0]
                 [0 0 0]
                 [0 0 0]
                 [0 0 0]
                 [0 0 0]
                 [0 0 0]
                 [0 0 0]]
             [[0 0 0]
                 [0 0 0]
                 [0 0 0]
                 [0 0 0]
                 [0 0 0]
                 [0 0 0]
                 [0 0 0]
                 [0 0 0]
                 [0 0 0]
                 [0 0 0]]
             [[0 0 0]
                 [0 0 0]
                 [0 0 0]
                 [0 0 0]
                 [0 0 0]
                 [0 0 0]
                 [0 0 0]
                 [0 0 0]
                 [0 0 0]
                 [0 0 0]]
             [[0 0 0]
                 [0 0 0]
                 [0 0 0]
                 [0 0 0]
                 [0 0 0]
                 [0 0 0]
                 [0 0 0]
                 [0 0 0]
                 [0 0 0]
                 [0 0 0]]
             [[0 0 0]
                 [0 0 0]
                 [0 0 0]
                 [0 0 0]
                 [0 0 0]
                 [0 0 0]
                 [0 0 0]
                 [0 0 0]
                 [0 0 0]
                 [0 0 0]]
             [[0 0 0]
                 [0 0 0]
                 [0 0 0]
                 [0 0 0]
                 [0 0 0]
                 [0 0 0]
                 [0 0 0]
                 [0 0 0]
                 [0 0 0]
                 [0 0 0]]
             [[0 0 0]
                 [0 0 0]
                 [0 0 0]
                 [0 0 0]
                 [0 0 0]
                 [0 0 0]
                 [0 0 0]
                 [0 0 0]
                 [0 0 0]
                 [0 0 0]]
             [[0 0 0]
                 [0 0 0]
                 [0 0 0]
                 [0 0 0]
                 [0 0 0]
                 [0 0 0]
                 [0 0 0]
                 [0 0 0]
                 [0 0 0]
                 [0 0 0]]
             [[0 0 0]
                 [0 0 0]
                 [0 0 0]
                 [0 0 0]
                 [0 0 0]
                 [0 0 0]
                 [0 0 0]
                 [0 0 0]
                 [0 0 0]
                 [0 0 0]]
             [[0 0 0]
                 [0 0 0]
                 [0 0 0]
                 [0 0 0]
                 [0 0 0]
                 [0 0 0]
                 [0 0 0]
                 [0 0 0]
                 [0 0 0]
                 [0 0 0]]]
         [[[0 0 0]
                 [0 0 0]
                 [0 0 0]
                 [0 0 0]
                 [0 0 0]
                 [0 0 0]
                 [0 0 0]
                 [1 0 0]
                 [0 0 0]
                 [0 0 0]]
             [[0 0 0]
                 [0 0 0]
                 [0 0 0]
                 [0 0 0]
                 [0 0 0]
                 [0 0 0]
                 [0 0 0]
                 [0 0 0]
                 [0 0 0]
                 [0 0 0]]
             [[0 0 0]
                 [0 0 0]
                 [0 0 0]
                 [0 0 0]
                 [0 0 0]
                 [0 0 0]
                 [0 0 0]
                 [0 0 0]
                 [0 0 0]
                 [0 0 0]]
             [[0 0 0]
                 [0 0 0]
                 [0 0 0]
                 [0 0 0]
                 [0 0 0]
                 [0 0 0]
                 [0 0 0]
                 [0 0 0]
                 [0 0 0]
                 [0 0 0]]
             [[0 0 0]
                 [0 0 0]
                 [0 0 0]
                 [0 0 0]
                 [0 0 0]
                 [0 0 0]
                 [0 0 0]
                 [0 0 0]
                 [0 0 0]
                 [0 0 0]]
             [[0 0 0]
                 [0 0 0]
                 [0 0 0]
                 [0 0 0]
                 [0 0 0]
                 [0 0 0]
                 [0 0 0]
                 [0 0 0]
                 [0 0 0]
                 [0 0 0]]
             [[0 0 0]
                 [0 0 0]
                 [0 0 0]
                 [0 0 0]
                 [0 0 0]
                 [0 0 0]
                 [0 0 0]
                 [0 0 0]
                 [0 0 0]
                 [0 0 0]]
             [[0 0 0]
                 [0 0 0]
                 [0 0 0]
                 [0 0 0]
                 [0 0 0]
                 [0 0 0]
                 [0 0 0]
                 [0 0 0]
                 [0 0 0]
                 [0 0 0]]
             [[0 0 0]
                 [0 0 0]
                 [0 0 0]
                 [0 0 0]
                 [0 0 0]
                 [0 0 0]
                 [0 0 0]
                 [0 0 0]
                 [0 0 0]
                 [0 0 0]]
             [[0 0 0]
                 [0 0 0]
                 [0 0 0]
                 [0 0 0]
                 [0 0 0]
                 [0 0 0]
                 [0 0 0]
                 [0 0 0]
                 [0 0 0]
                 [0 0 0]]
             [[0 0 0]
                 [0 0 0]
                 [0 0 0]
                 [0 0 0]
                 [0 0 0]
                 [0 0 0]
                 [0 0 0]
                 [0 0 0]
                 [0 0 0]
                 [0 0 0]]
             [[0 0 0]
                 [0 0 0]
                 [0 0 0]
                 [0 0 0]
                 [0 0 0]
                 [0 0 0]
                 [0 0 0]
                 [0 0 0]
                 [0 0 0]
                 [0 0 0]]]
         [[[0 0 0]
                 [0 0 0]
                 [1 0 0]
                 [0 0 0]
                 [0 0 0]
                 [0 0 0]
                 [0 0 0]
                 [0 0 0]
                 [0 0 0]
                 [0 0 0]]
             [[0 0 0]
                 [0 0 0]
                 [0 0 0]
                 [0 0 0]
                 [0 0 0]
                 [0 0 0]
                 [0 0 0]
                 [0 0 0]
                 [0 0 0]
                 [0 0 0]]
             [[0 0 0]
                 [0 0 0]
                 [0 0 0]
                 [0 0 0]
                 [0 0 0]
                 [0 0 0]
                 [0 0 0]
                 [0 0 0]
                 [0 0 0]
                 [0 0 0]]
             [[0 0 0]
                 [0 0 0]
                 [0 0 0]
                 [0 0 0]
                 [0 0 0]
                 [0 0 0]
                 [0 0 0]
                 [0 0 0]
                 [0 0 0]
                 [0 0 0]]
             [[0 0 0]
                 [0 0 0]
                 [0 0 0]
                 [0 0 0]
                 [0 0 0]
                 [0 0 0]
                 [0 0 0]
                 [0 0 0]
                 [0 0 0]
                 [0 0 0]]
             [[0 0 0]
                 [0 0 0]
                 [0 0 0]
                 [0 0 0]
                 [0 0 0]
                 [0 0 0]
                 [0 0 0]
                 [0 0 0]
                 [0 0 0]
                 [0 0 0]]
             [[0 0 0]
                 [0 0 0]
                 [0 0 0]
                 [0 0 0]
                 [0 0 0]
                 [0 0 0]
                 [0 0 0]
                 [0 0 0]
                 [0 0 0]
                 [0 0 0]]
             [[0 0 0]
                 [0 0 0]
                 [0 0 0]
                 [0 0 0]
                 [0 0 0]
                 [0 0 0]
                 [0 0 0]
                 [0 0 0]
                 [0 0 0]
                 [0 0 0]]
             [[0 0 0]
                 [0 0 0]
                 [0 0 0]
                 [0 0 0]
                 [0 0 0]
                 [0 0 0]
                 [0 0 0]
                 [0 0 0]
                 [0 0 0]
                 [0 0 0]]
             [[0 0 0]
                 [0 0 0]
                 [0 0 0]
                 [0 0 0]
                 [0 0 0]
                 [0 0 0]
                 [0 0 0]
                 [0 0 0]
                 [0 0 0]
                 [0 0 0]]
             [[0 0 0]
                 [0 0 0]
                 [0 0 0]
                 [0 0 0]
                 [0 0 0]
                 [0 0 0]
                 [0 0 0]
                 [0 0 0]
                 [0 0 0]
                 [0 0 0]]
             [[0 0 0]
                 [0 0 0]
                 [0 0 0]
                 [0 0 0]
                 [0 0 0]
                 [0 0 0]
                 [0 0 0]
                 [0 0 0]
                 [0 0 0]
                 [0 0 0]]]
         [[[0 0 0]
                 [0 0 0]
                 [0 0 0]
                 [0 0 0]
                 [0 0 0]
                 [1 0 0]
                 [0 0 0]
                 [0 0 0]
                 [0 0 0]
                 [0 0 0]]
             [[0 0 0]
                 [0 0 0]
                 [0 0 0]
                 [0 0 0]
                 [0 0 0]
                 [0 0 0]
                 [0 0 0]
                 [0 0 0]
                 [0 0 0]
                 [0 0 0]]
             [[0 0 0]
                 [0 0 0]
                 [0 0 0]
                 [0 0 0]
                 [0 0 0]
                 [0 0 0]
                 [0 0 0]
                 [0 0 0]
                 [0 0 0]
                 [0 0 0]]
             [[0 0 0]
                 [0 0 0]
                 [0 0 0]
                 [0 0 0]
                 [0 0 0]
                 [0 0 0]
                 [0 0 0]
                 [0 0 0]
                 [0 0 0]
                 [0 0 0]]
             [[0 0 0]
                 [0 0 0]
                 [0 0 0]
                 [0 0 0]
                 [0 0 0]
                 [0 0 0]
                 [0 0 0]
                 [0 0 0]
                 [0 0 0]
                 [0 0 0]]
             [[0 0 0]
                 [0 0 0]
                 [0 0 0]
                 [0 0 0]
                 [0 0 0]
                 [0 0 0]
                 [0 0 0]
                 [0 0 0]
                 [0 0 0]
                 [0 0 0]]
             [[0 0 0]
                 [0 0 0]
                 [0 0 0]
                 [0 0 0]
                 [0 0 0]
                 [0 0 0]
                 [0 0 0]
                 [0 0 0]
                 [0 0 0]
                 [0 0 0]]
             [[0 0 0]
                 [0 0 0]
                 [0 0 0]
                 [0 0 0]
                 [0 0 0]
                 [0 0 0]
                 [0 0 0]
                 [0 0 0]
                 [0 0 0]
                 [0 0 0]]
             [[0 0 0]
                 [0 0 0]
                 [0 0 0]
                 [0 0 0]
                 [0 0 0]
                 [0 0 0]
                 [0 0 0]
                 [0 0 0]
                 [0 0 0]
                 [0 0 0]]
             [[0 0 0]
                 [0 0 0]
                 [0 0 0]
                 [0 0 0]
                 [0 0 0]
                 [0 0 0]
                 [0 0 0]
                 [0 0 0]
                 [0 0 0]
                 [0 0 0]]
             [[0 0 0]
                 [0 0 0]
                 [0 0 0]
                 [0 0 0]
                 [0 0 0]
                 [0 0 0]
                 [0 0 0]
                 [0 0 0]
                 [0 0 0]
                 [0 0 0]]
             [[0 0 0]
                 [0 0 0]
                 [0 0 0]
                 [0 0 0]
                 [0 0 0]
                 [0 0 0]
                 [0 0 0]
                 [0 0 0]
                 [0 0 0]
                 [0 0 0]]]
         [[[0 0 0]
                 [0 0 0]
                 [0 0 0]
                 [1 0 0]
                 [0 0 0]
                 [0 0 0]
                 [0 0 0]
                 [0 0 0]
                 [0 0 0]
                 [0 0 0]]
             [[0 0 0]
                 [0 0 0]
                 [0 0 0]
                 [0 0 0]
                 [0 0 0]
                 [0 0 0]
                 [0 0 0]
                 [0 0 0]
                 [0 0 0]
                 [0 0 0]]
             [[0 0 0]
                 [0 0 0]
                 [0 0 0]
                 [0 0 0]
                 [0 0 0]
                 [0 0 0]
                 [0 0 0]
                 [0 0 0]
                 [0 0 0]
                 [0 0 0]]
             [[0 0 0]
                 [0 0 0]
                 [0 0 0]
                 [0 0 0]
                 [0 0 0]
                 [0 0 0]
                 [0 0 0]
                 [0 0 0]
                 [0 0 0]
                 [0 0 0]]
             [[0 0 0]
                 [0 0 0]
                 [0 0 0]
                 [0 0 0]
                 [0 0 0]
                 [0 0 0]
                 [0 0 0]
                 [0 0 0]
                 [0 0 0]
                 [0 0 0]]
             [[0 0 0]
                 [0 0 0]
                 [0 0 0]
                 [0 0 0]
                 [0 0 0]
                 [0 0 0]
                 [0 0 0]
                 [0 0 0]
                 [0 0 0]
                 [0 0 0]]
             [[0 0 0]
                 [0 0 0]
                 [0 0 0]
                 [0 0 0]
                 [0 0 0]
                 [0 0 0]
                 [0 0 0]
                 [0 0 0]
                 [0 0 0]
                 [0 0 0]]
             [[0 0 0]
                 [0 0 0]
                 [0 0 0]
                 [0 0 0]
                 [0 0 0]
                 [0 0 0]
                 [0 0 0]
                 [0 0 0]
                 [0 0 0]
                 [0 0 0]]
             [[0 0 0]
                 [0 0 0]
                 [0 0 0]
                 [0 0 0]
                 [0 0 0]
                 [0 0 0]
                 [0 0 0]
                 [0 0 0]
                 [0 0 0]
                 [0 0 0]]
             [[0 0 0]
                 [0 0 0]
                 [0 0 0]
                 [0 0 0]
                 [0 0 0]
                 [0 0 0]
                 [0 0 0]
                 [0 0 0]
                 [0 0 0]
                 [0 0 0]]
             [[0 0 0]
                 [0 0 0]
                 [0 0 0]
                 [0 0 0]
                 [0 0 0]
                 [0 0 0]
                 [0 0 0]
                 [0 0 0]
                 [0 0 0]
                 [0 0 0]]
             [[0 0 0]
                 [0 0 0]
                 [0 0 0]
                 [0 0 0]
                 [0 0 0]
                 [0 0 0]
                 [0 0 0]
                 [0 0 0]
                 [0 0 0]
                 [0 0 0]]]
         [[[0 0 0]
                 [0 0 0]
                 [0 0 0]
                 [0 0 0]
                 [0 0 0]
                 [0 0 0]
                 [1 0 0]
                 [0 0 0]
                 [0 0 0]
                 [0 0 0]]
             [[0 0 0]
                 [0 0 0]
                 [0 0 0]
                 [0 0 0]
                 [0 0 0]
                 [0 0 0]
                 [0 0 0]
                 [0 0 0]
                 [0 0 0]
                 [0 0 0]]
             [[0 0 0]
                 [0 0 0]
                 [0 0 0]
                 [0 0 0]
                 [0 0 0]
                 [0 0 0]
                 [0 0 0]
                 [0 0 0]
                 [0 0 0]
                 [0 0 0]]
             [[0 0 0]
                 [0 0 0]
                 [0 0 0]
                 [0 0 0]
                 [0 0 0]
                 [0 0 0]
                 [0 0 0]
                 [0 0 0]
                 [0 0 0]
                 [0 0 0]]
             [[0 0 0]
                 [0 0 0]
                 [0 0 0]
                 [0 0 0]
                 [0 0 0]
                 [0 0 0]
                 [0 0 0]
                 [0 0 0]
                 [0 0 0]
                 [0 0 0]]
             [[0 0 0]
                 [0 0 0]
                 [0 0 0]
                 [0 0 0]
                 [0 0 0]
                 [0 0 0]
                 [0 0 0]
                 [0 0 0]
                 [0 0 0]
                 [0 0 0]]
             [[0 0 0]
                 [0 0 0]
                 [0 0 0]
                 [0 0 0]
                 [0 0 0]
                 [0 0 0]
                 [0 0 0]
                 [0 0 0]
                 [0 0 0]
                 [0 0 0]]
             [[0 0 0]
                 [0 0 0]
                 [0 0 0]
                 [0 0 0]
                 [0 0 0]
                 [0 0 0]
                 [0 0 0]
                 [0 0 0]
                 [0 0 0]
                 [0 0 0]]
             [[0 0 0]
                 [0 0 0]
                 [0 0 0]
                 [0 0 0]
                 [0 0 0]
                 [0 0 0]
                 [0 0 0]
                 [0 0 0]
                 [0 0 0]
                 [0 0 0]]
             [[0 0 0]
                 [0 0 0]
                 [0 0 0]
                 [0 0 0]
                 [0 0 0]
                 [0 0 0]
                 [0 0 0]
                 [0 0 0]
                 [0 0 0]
                 [0 0 0]]
             [[0 0 0]
                 [0 0 0]
                 [0 0 0]
                 [0 0 0]
                 [0 0 0]
                 [0 0 0]
                 [0 0 0]
                 [0 0 0]
                 [0 0 0]
                 [0 0 0]]
             [[0 0 0]
                 [0 0 0]
                 [0 0 0]
                 [0 0 0]
                 [0 0 0]
                 [0 0 0]
                 [0 0 0]
                 [0 0 0]
                 [0 0 0]
                 [0 0 0]]]
         [[[0 0 0]
                 [1 0 0]
                 [0 0 0]
                 [0 0 0]
                 [0 0 0]
                 [0 0 0]
                 [0 0 0]
                 [0 0 0]
                 [0 0 0]
                 [0 0 0]]
             [[0 0 0]
                 [0 0 0]
                 [0 0 0]
                 [0 0 0]
                 [0 0 0]
                 [0 0 0]
                 [0 0 0]
                 [0 0 0]
                 [0 0 0]
                 [0 0 0]]
             [[0 0 0]
                 [0 0 0]
                 [0 0 0]
                 [0 0 0]
                 [0 0 0]
                 [0 0 0]
                 [0 0 0]
                 [0 0 0]
                 [0 0 0]
                 [0 0 0]]
             [[0 0 0]
                 [0 0 0]
                 [0 0 0]
                 [0 0 0]
                 [0 0 0]
                 [0 0 0]
                 [0 0 0]
                 [0 0 0]
                 [0 0 0]
                 [0 0 0]]
             [[0 0 0]
                 [0 0 0]
                 [0 0 0]
                 [0 0 0]
                 [0 0 0]
                 [0 0 0]
                 [0 0 0]
                 [0 0 0]
                 [0 0 0]
                 [0 0 0]]
             [[0 0 0]
                 [0 0 0]
                 [0 0 0]
                 [0 0 0]
                 [0 0 0]
                 [0 0 0]
                 [0 0 0]
                 [0 0 0]
                 [0 0 0]
                 [0 0 0]]
             [[0 0 0]
                 [0 0 0]
                 [0 0 0]
                 [0 0 0]
                 [0 0 0]
                 [0 0 0]
                 [0 0 0]
                 [0 0 0]
                 [0 0 0]
                 [0 0 0]]
             [[0 0 0]
                 [0 0 0]
                 [0 0 0]
                 [0 0 0]
                 [0 0 0]
                 [0 0 0]
                 [0 0 0]
                 [0 0 0]
                 [0 0 0]
                 [0 0 0]]
             [[0 0 0]
                 [0 0 0]
                 [0 0 0]
                 [0 0 0]
                 [0 0 0]
                 [0 0 0]
                 [0 0 0]
                 [0 0 0]
                 [0 0 0]
                 [0 0 0]]
             [[0 0 0]
                 [0 0 0]
                 [0 0 0]
                 [0 0 0]
                 [0 0 0]
                 [0 0 0]
                 [0 0 0]
                 [0 0 0]
                 [0 0 0]
                 [0 0 0]]
             [[0 0 0]
                 [0 0 0]
                 [0 0 0]
                 [0 0 0]
                 [0 0 0]
                 [0 0 0]
                 [0 0 0]
                 [0 0 0]
                 [0 0 0]
                 [0 0 0]]
             [[0 0 0]
                 [0 0 0]
                 [0 0 0]
                 [0 0 0]
                 [0 0 0]
                 [0 0 0]
                 [0 0 0]
                 [0 0 0]
                 [0 0 0]
                 [0 0 0]]]
         [[[0 0 0]
                 [0 0 0]
                 [0 0 0]
                 [0 0 0]
                 [0 0 0]
                 [0 0 0]
                 [0 0 0]
                 [0 0 0]
                 [1 0 0]
                 [0 0 0]]
             [[0 0 0]
                 [0 0 0]
                 [0 0 0]
                 [0 0 0]
                 [0 0 0]
                 [0 0 0]
                 [0 0 0]
                 [0 0 0]
                 [0 0 0]
                 [0 0 0]]
             [[0 0 0]
                 [0 0 0]
                 [0 0 0]
                 [0 0 0]
                 [0 0 0]
                 [0 0 0]
                 [0 0 0]
                 [0 0 0]
                 [0 0 0]
                 [0 0 0]]
             [[0 0 0]
                 [0 0 0]
                 [0 0 0]
                 [0 0 0]
                 [0 0 0]
                 [0 0 0]
                 [0 0 0]
                 [0 0 0]
                 [0 0 0]
                 [0 0 0]]
             [[0 0 0]
                 [0 0 0]
                 [0 0 0]
                 [0 0 0]
                 [0 0 0]
                 [0 0 0]
                 [0 0 0]
                 [0 0 0]
                 [0 0 0]
                 [0 0 0]]
             [[0 0 0]
                 [0 0 0]
                 [0 0 0]
                 [0 0 0]
                 [0 0 0]
                 [0 0 0]
                 [0 0 0]
                 [0 0 0]
                 [0 0 0]
                 [0 0 0]]
             [[0 0 0]
                 [0 0 0]
                 [0 0 0]
                 [0 0 0]
                 [0 0 0]
                 [0 0 0]
                 [0 0 0]
                 [0 0 0]
                 [0 0 0]
                 [0 0 0]]
             [[0 0 0]
                 [0 0 0]
                 [0 0 0]
                 [0 0 0]
                 [0 0 0]
                 [0 0 0]
                 [0 0 0]
                 [0 0 0]
                 [0 0 0]
                 [0 0 0]]
             [[0 0 0]
                 [0 0 0]
                 [0 0 0]
                 [0 0 0]
                 [0 0 0]
                 [0 0 0]
                 [0 0 0]
                 [0 0 0]
                 [0 0 0]
                 [0 0 0]]
             [[0 0 0]
                 [0 0 0]
                 [0 0 0]
                 [0 0 0]
                 [0 0 0]
                 [0 0 0]
                 [0 0 0]
                 [0 0 0]
                 [0 0 0]
                 [0 0 0]]
             [[0 0 0]
                 [0 0 0]
                 [0 0 0]
                 [0 0 0]
                 [0 0 0]
                 [0 0 0]
                 [0 0 0]
                 [0 0 0]
                 [0 0 0]
                 [0 0 0]]
             [[0 0 0]
                 [0 0 0]
                 [0 0 0]
                 [0 0 0]
                 [0 0 0]
                 [0 0 0]
                 [0 0 0]
                 [0 0 0]
                 [0 0 0]
                 [0 0 0]]]
         [[[1 0 0]
                 [0 0 0]
                 [0 0 0]
                 [0 0 0]
                 [0 0 0]
                 [0 0 0]
                 [0 0 0]
                 [0 0 0]
                 [0 0 0]
                 [0 0 0]]
             [[0 0 0]
                 [0 0 0]
                 [0 0 0]
                 [0 0 0]
                 [0 0 0]
                 [0 0 0]
                 [0 0 0]
                 [0 0 0]
                 [0 0 0]
                 [0 0 0]]
             [[0 0 0]
                 [0 0 0]
                 [0 0 0]
                 [0 0 0]
                 [0 0 0]
                 [0 0 0]
                 [0 0 0]
                 [0 0 0]
                 [0 0 0]
                 [0 0 0]]
             [[0 0 0]
                 [0 0 0]
                 [0 0 0]
                 [0 0 0]
                 [0 0 0]
                 [0 0 0]
                 [0 0 0]
                 [0 0 0]
                 [0 0 0]
                 [0 0 0]]
             [[0 0 0]
                 [0 0 0]
                 [0 0 0]
                 [0 0 0]
                 [0 0 0]
                 [0 0 0]
                 [0 0 0]
                 [0 0 0]
                 [0 0 0]
                 [0 0 0]]
             [[0 0 0]
                 [0 0 0]
                 [0 0 0]
                 [0 0 0]
                 [0 0 0]
                 [0 0 0]
                 [0 0 0]
                 [0 0 0]
                 [0 0 0]
                 [0 0 0]]
             [[0 0 0]
                 [0 0 0]
                 [0 0 0]
                 [0 0 0]
                 [0 0 0]
                 [0 0 0]
                 [0 0 0]
                 [0 0 0]
                 [0 0 0]
                 [0 0 0]]
             [[0 0 0]
                 [0 0 0]
                 [0 0 0]
                 [0 0 0]
                 [0 0 0]
                 [0 0 0]
                 [0 0 0]
                 [0 0 0]
                 [0 0 0]
                 [0 0 0]]
             [[0 0 0]
                 [0 0 0]
                 [0 0 0]
                 [0 0 0]
                 [0 0 0]
                 [0 0 0]
                 [0 0 0]
                 [0 0 0]
                 [0 0 0]
                 [0 0 0]]
             [[0 0 0]
                 [0 0 0]
                 [0 0 0]
                 [0 0 0]
                 [0 0 0]
                 [0 0 0]
                 [0 0 0]
                 [0 0 0]
                 [0 0 0]
                 [0 0 0]]
             [[0 0 0]
                 [0 0 0]
                 [0 0 0]
                 [0 0 0]
                 [0 0 0]
                 [0 0 0]
                 [0 0 0]
                 [0 0 0]
                 [0 0 0]
                 [0 0 0]]
             [[0 0 0]
                 [0 0 0]
                 [0 0 0]
                 [0 0 0]
                 [0 0 0]
                 [0 0 0]
                 [0 0 0]
                 [0 0 0]
                 [0 0 0]
                 [0 0 0]]]
         [[[0 0 0]
                 [0 0 0]
                 [0 0 0]
                 [0 0 0]
                 [1 0 0]
                 [0 0 0]
                 [0 0 0]
                 [0 0 0]
                 [0 0 0]
                 [0 0 0]]
             [[0 0 0]
                 [0 0 0]
                 [0 0 0]
                 [0 0 0]
                 [0 0 0]
                 [0 0 0]
                 [0 0 0]
                 [0 0 0]
                 [0 0 0]
                 [0 0 0]]
             [[0 0 0]
                 [0 0 0]
                 [0 0 0]
                 [0 0 0]
                 [0 0 0]
                 [0 0 0]
                 [0 0 0]
                 [0 0 0]
                 [0 0 0]
                 [0 0 0]]
             [[0 0 0]
                 [0 0 0]
                 [0 0 0]
                 [0 0 0]
                 [0 0 0]
                 [0 0 0]
                 [0 0 0]
                 [0 0 0]
                 [0 0 0]
                 [0 0 0]]
             [[0 0 0]
                 [0 0 0]
                 [0 0 0]
                 [0 0 0]
                 [0 0 0]
                 [0 0 0]
                 [0 0 0]
                 [0 0 0]
                 [0 0 0]
                 [0 0 0]]
             [[0 0 0]
                 [0 0 0]
                 [0 0 0]
                 [0 0 0]
                 [0 0 0]
                 [0 0 0]
                 [0 0 0]
                 [0 0 0]
                 [0 0 0]
                 [0 0 0]]
             [[0 0 0]
                 [0 0 0]
                 [0 0 0]
                 [0 0 0]
                 [0 0 0]
                 [0 0 0]
                 [0 0 0]
                 [0 0 0]
                 [0 0 0]
                 [0 0 0]]
             [[0 0 0]
                 [0 0 0]
                 [0 0 0]
                 [0 0 0]
                 [0 0 0]
                 [0 0 0]
                 [0 0 0]
                 [0 0 0]
                 [0 0 0]
                 [0 0 0]]
             [[0 0 0]
                 [0 0 0]
                 [0 0 0]
                 [0 0 0]
                 [0 0 0]
                 [0 0 0]
                 [0 0 0]
                 [0 0 0]
                 [0 0 0]
                 [0 0 0]]
             [[0 0 0]
                 [0 0 0]
                 [0 0 0]
                 [0 0 0]
                 [0 0 0]
                 [0 0 0]
                 [0 0 0]
                 [0 0 0]
                 [0 0 0]
                 [0 0 0]]
             [[0 0 0]
                 [0 0 0]
                 [0 0 0]
                 [0 0 0]
                 [0 0 0]
                 [0 0 0]
                 [0 0 0]
                 [0 0 0]
                 [0 0 0]
                 [0 0 0]]
             [[0 0 0]
                 [0 0 0]
                 [0 0 0]
                 [0 0 0]
                 [0 0 0]
                 [0 0 0]
                 [0 0 0]
                 [0 0 0]
                 [0 0 0]
                 [0 0 0]]]
         [[[0 0 0]
                 [0 0 0]
                 [0 0 0]
                 [0 0 0]
                 [0 0 0]
                 [0 0 0]
                 [0 0 0]
                 [0 0 0]
                 [0 0 0]
                 [0 0 0]]
             [[0 0 0]
                 [0 0 0]
                 [0 0 0]
                 [0 0 0]
                 [0 0 0]
                 [0 0 0]
                 [0 0 0]
                 [0 0 0]
                 [0 0 0]
                 [0 0 0]]
             [[0 0 0]
                 [0 0 0]
                 [0 0 0]
                 [0 0 0]
                 [0 0 0]
                 [0 0 0]
                 [0 0 0]
                 [0 0 0]
                 [0 0 0]
                 [0 0 0]]
             [[0 0 0]
                 [0 0 0]
                 [0 0 0]
                 [0 0 0]
                 [0 0 0]
                 [0 0 0]
                 [0 0 0]
                 [0 0 0]
                 [0 0 0]
                 [0 0 0]]
             [[0 0 0]
                 [0 0 0]
                 [0 0 0]
                 [0 0 0]
                 [0 0 0]
                 [0 0 0]
                 [0 0 0]
                 [0 0 0]
                 [0 0 0]
                 [0 0 0]]
             [[0 0 0]
                 [0 0 0]
                 [0 0 0]
                 [0 0 0]
                 [0 0 0]
                 [0 0 0]
                 [0 0 0]
                 [0 0 0]
                 [0 0 0]
                 [0 0 0]]
             [[0 0 0]
                 [0 0 0]
                 [0 0 0]
                 [0 0 0]
                 [0 0 0]
                 [0 0 0]
                 [0 0 0]
                 [0 0 0]
                 [0 0 0]
                 [0 0 0]]
             [[0 0 0]
                 [0 0 0]
                 [0 0 0]
                 [0 0 0]
                 [0 0 0]
                 [0 0 0]
                 [0 0 0]
                 [0 0 0]
                 [0 0 0]
                 [0 0 0]]
             [[0 0 0]
                 [0 0 0]
                 [0 0 0]
                 [0 0 0]
                 [0 0 0]
                 [0 0 0]
                 [0 0 0]
                 [0 0 0]
                 [0 0 0]
                 [0 0 0]]
             [[0 0 0]
                 [0 0 0]
                 [0 0 0]
                 [0 0 0]
                 [0 0 0]
                 [0 0 0]
                 [0 0 0]
                 [0 0 0]
                 [0 0 0]
                 [0 0 0]]
             [[0 0 0]
                 [0 0 0]
                 [0 0 0]
                 [0 0 0]
                 [0 0 0]
                 [0 0 0]
                 [0 0 0]
                 [0 0 0]
                 [0 0 0]
                 [0 0 0]]
             [[0 0 0]
                 [0 0 0]
                 [0 0 0]
                 [0 0 0]
                 [0 0 0]
                 [0 0 0]
                 [0 0 0]
                 [0 0 0]
                 [0 0 0]
                 [0 0 0]]]]

 [1 1 1 1 1 1 1 1 1 1]

 [[-9007199254740991 0 0 0 0 0 0 0 0 0 0]
         [0 -9007199254740991 0 0 0 0 0 0 0 0 0]
         [0 0 -9007199254740991 0 0 0 0 0 0 0 0]
         [0 0 0 -9007199254740991 0 0 0 0 0 0 0]
         [0 0 0 0 -9007199254740991 0 0 0 0 0 0]
         [0 0 0 0 0 -9007199254740991 0 0 0 0 0]
         [0 0 0 0 0 0 -9007199254740991 0 0 0 0]
         [0 0 0 0 0 0 0 -9007199254740991 0 0 0]
         [0 0 0 0 0 0 0 0 -9007199254740991 0 0]
         [0 0 0 0 0 0 0 0 0 -9007199254740991 0]
         [0 0 0 0 0 0 0 0 0 0 -9007199254740991]]
The total number of e-buses dispatched: 10
BusID 1: 0 -> 9 @ 1 IDLE:0 -> 0 @ 1 IDLE:0
BusID 2: 0 -> 7 @ 1 IDLE:0 -> 0 @ 1 IDLE:0
BusID 3: 0 -> 3 @ 1 IDLE:0 -> 0 @ 1 IDLE:0
BusID 4: 0 -> 5 @ 1 IDLE:0 -> 0 @ 1 IDLE:0
BusID 5: 0 -> 10 @ 1 IDLE:0 -> 0 @ 1 IDLE:0
BusID 6: 0 -> 4 @ 1 IDLE:0 -> 0 @ 1 IDLE:0
BusID 7: 0 -> 6 @ 1 IDLE:0 -> 0 @ 1 IDLE:0
BusID 8: 0 -> 2 @ 1 IDLE:0 -> 0 @ 1 IDLE:0
BusID 9: 0 -> 8 @ 1 IDLE:0 -> 0 @ 1 IDLE:0
BusID 10: 0 -> 1 @ 1 IDLE:0 -> 0 @ 1 IDLE:0
